cliques=[{0,1,2,4,3,12,37,40,42,44,45,48,82,84,85,88},{1,0,2,3,4,12,37,40,42,44,45,48,82,85,84,88},{0,1,2,4,3,12,37,40,42,44,45,48,82,85,84,88},{0,1,2,3,4,12,37,40,42,44,45,48,82,85,84,88},{0,1,2,4,3,12,37,40,42,44,45,48,82,85,84,88},{0,5,6,8,14,41,46,75,80,84,85,87},{6,8,14,17,21,26,27,41,59,64,66,67,102},{7,10,13,22,49,51,56,57,73,78,79,86,91,93,98},{6,8,14,17,21,26,27,41,59,64,66,67,102},{7,9,11,37,38,43,47,52,55,77,86,92},{7,10,13,22,49,51,56,57,73,78,79,86,91,93,98},{9,11,15,38,40,43,47,52,77,76,83,81,95},{0,1,3,4,12,16,40,44,45,48,50,82,84,85,88},{7,10,13,22,49,51,56,57,73,78,79,86,91,93,98},{6,8,14,17,21,27,26,41,59,64,66,80,87},{9,11,15,38,40,43,47,52,77,76,83,81,95},{0,1,3,4,12,16,40,44,45,48,50,82,84,85,88},{6,8,14,17,21,27,26,41,59,64,66,80,87},{11,15,18,28,30,32,33,47,52,81,95},{5,17,19,31,46,53,54,61,62,80},{6,8,20,21,23,25,41,58,59,90,96},{6,8,14,17,21,26,27,41,59,64,66,67,102},{7,10,13,22,49,51,56,57,79,78,91,93,98,99,101},{6,8,20,21,23,25,41,58,59,90,96},{20,23,24,25,34,35,58,89,90,96,106},{6,8,20,21,23,25,41,58,59,90,96},{6,8,14,17,21,26,27,41,59,64,66,67,102},{6,8,14,17,21,27,26,41,59,64,66,67,102},{11,15,18,28,30,32,33,47,52,71,95},{0,1,3,12,16,29,40,44,48,50,82,88},{11,15,18,28,30,32,33,47,52,71,95},{5,17,19,31,46,53,54,61,62,80},{11,15,18,28,30,32,33,47,52,71,95},{11,15,18,28,30,33,32,47,52,71,95},{20,23,25,24,34,35,58,89,90,96,106},{20,23,25,24,35,34,58,89,90,96,106},{18,28,30,32,33,36,68,71,95},{1,2,3,4,37,38,40,42,43,44,45,77,76,83},{1,2,3,4,37,38,40,42,43,44,45,77,76,83},{7,9,10,37,39,38,51,72,73,78,77,86},{1,0,2,3,4,12,37,40,42,44,45,48,82,85,84,88},{6,8,14,17,21,26,27,41,59,64,66,67,102},{0,1,2,4,3,12,37,40,42,44,45,48,82,85,84,88},{1,9,11,15,38,40,43,47,76,77,83,81,95},{0,1,2,3,4,12,37,40,42,44,45,48,82,85,84,88},{0,1,2,4,3,12,37,40,42,44,45,48,82,85,84,88},{0,5,6,8,14,41,46,75,80,84,85,87},{9,11,15,38,40,43,47,52,77,76,83,81,95},{0,1,2,3,4,12,37,40,42,44,45,48,82,85,84,88},{7,10,13,22,49,51,57,73,74,79,78,86,91,98},{0,1,3,4,12,16,40,44,45,48,50,82,84,85,88},{7,10,13,22,49,51,56,57,73,78,79,86,91,93,98},{9,11,15,38,40,43,47,52,77,76,83,81,95},{5,17,19,31,46,53,54,61,62,80},{5,17,19,31,46,54,53,61,62,80},{7,9,11,15,38,43,47,52,55,77,86,92},{7,10,13,22,49,51,56,57,73,78,79,86,91,93,98},{7,10,13,22,49,51,56,57,79,78,91,93,98,99,101},{6,8,20,21,23,25,41,58,59,90,96},{6,8,14,17,21,26,27,41,59,64,66,67,102},{0,3,12,16,29,44,48,50,60,82,88,89},{5,17,19,31,46,53,54,61,62,80},{5,17,19,31,46,53,54,61,62,80},{1,3,12,16,29,40,44,48,50,63,82,88},{6,8,14,17,21,26,27,41,59,64,66,67,102},{6,8,20,21,23,25,41,58,59,65,96,102},{6,8,14,17,21,27,26,41,59,64,66,67,102},{6,8,14,17,21,26,27,41,59,64,66,67,102},{15,18,28,30,32,33,47,68,71,95},{13,22,49,57,69,74,79,91,97,98,99,101,104,109},{12,16,24,50,58,60,70,90,89,106},{11,15,18,28,30,32,33,47,52,71,95},{7,9,10,37,39,38,51,72,73,78,77,86},{7,9,10,37,39,38,51,72,73,78,77,86},{7,10,13,22,49,51,57,73,74,79,78,86,91,98},{0,5,6,8,14,41,46,75,80,84,85,87},{1,9,11,15,38,40,43,47,76,77,83,81,95},{1,2,3,4,37,38,40,42,43,44,45,77,76,83},{7,9,10,37,39,38,51,72,73,78,77,86},{7,10,13,22,49,51,57,73,74,79,78,86,91,98},{0,5,6,8,14,41,46,75,80,84,85,87},{1,9,11,15,38,40,43,47,76,77,81,83,95},{0,1,2,3,4,12,37,40,42,44,45,48,82,85,84,88},{1,9,11,15,38,40,43,47,76,77,83,81,95},{0,1,2,4,3,12,37,40,42,44,45,48,82,84,85,88},{0,1,2,4,3,12,37,40,42,44,45,48,82,85,84,88},{7,10,13,22,49,51,56,57,73,78,79,86,91,93,98},{0,5,6,8,14,41,46,75,80,84,85,87},{1,0,2,3,4,12,37,40,42,44,45,48,82,85,84,88},{0,3,4,12,16,44,45,48,50,82,84,85,88,89},{20,23,24,25,34,35,58,90,89,96,106},{7,10,13,22,49,51,56,57,73,79,78,86,91,93,98},{7,9,11,15,38,43,47,52,55,77,86,92},{7,9,11,15,38,47,52,55,77,86,92,93},{13,22,49,69,74,79,91,94,97,98,101,104,109},{11,15,18,28,30,32,33,47,52,81,95},{6,8,20,21,23,25,41,58,59,90,96},{13,22,49,69,74,79,91,94,97,98,101,104,109},{7,10,13,22,49,51,56,57,79,78,91,93,98,99,101},{7,10,13,22,49,51,56,57,79,78,91,93,98,99,101},{1,18,40,43,47,76,81,83,95,100,103,105},{7,10,13,22,49,51,56,57,79,78,91,93,98,99,101},{6,8,14,17,21,26,27,41,59,64,66,67,102},{18,28,30,32,33,47,68,81,95,103,105},{10,13,22,49,57,74,79,91,97,98,99,101,104,109},{18,28,30,32,33,47,68,81,95,103,105},{20,23,24,25,34,35,58,89,90,96,106},{5,19,31,53,54,61,62,74,80,94,107},{5,17,19,31,53,54,61,62,80,108},{10,13,22,49,51,57,74,79,91,98,99,101,109}];
nr_cliques=110;
